54863
6 3 385
3 43 1096
43 40 1279
40 51 1042
51 7 770
7 37 517
37 5 467
5 35 323
35 20 810
20 50 763
50 24 868
24 38 802
38 8 368
8 44 383
44 32 676
32 41 362
41 13 686
13 19 1784
19 48 897
48 17 415
17 53 938
53 23 388
23 21 176
21 29 516
29 46 1012
46 36 402
36 39 503
39 15 485
15 16 556
16 22 737
22 10 117
10 9 803
9 14 471
14 2 433
2 52 598
52 45 722
45 11 436
11 25 545
25 31 299
31 27 4460
27 1 4123
1 33 7621
33 42 4807
42 12 2092
12 18 768
18 4 606
4 30 380
30 47 944
47 34 702
34 54 401
54 26 967
26 49 560
49 55 711
55 28 487
28 6 404
